NAME: I22481-n98-k9
COMMENT : (Fake et al, No of trucks: 9, Optimal value: )
TYPE : CVRP
DIMENSION : 98
EDGE_WEIGHT_TYPE : EUC_2D
CAPACITY : 23
NODE_COORD_SECTION
1 812 364
2 365 805
3 205 185
4 319 116
5 337 95
6 597 225
7 243 426
8 471 534
9 958 942
10 733 390
11 330 211
12 54 126
13 452 925
14 47 76
15 501 225
16 319 923
17 23 311
18 541 899
19 992 495
20 52 853
21 789 210
22 172 457
23 956 381
24 914 856
25 663 31
26 172 403
27 499 190
28 512 887
29 665 913
30 873 406
31 741 604
32 682 223
33 164 986
34 49 404
35 61 456
36 384 924
37 75 251
38 969 980
39 571 342
40 490 188
41 194 964
42 450 709
43 449 458
44 473 462
45 914 928
46 211 323
47 454 767
48 301 136
49 957 755
50 309 29
51 561 678
52 287 862
53 423 529
54 729 378
55 25 642
56 956 620
57 294 556
58 511 982
59 823 793
60 743 635
61 767 84
62 8 162
63 341 977
64 840 750
65 520 348
66 313 468
67 86 201
68 622 413
69 620 571
70 693 159
71 611 689
72 3 487
73 464 173
74 621 129
75 445 205
76 617 995
77 809 583
78 377 875
79 381 268
80 873 960
81 78 739
82 120 93
83 197 46
84 81 750
85 441 743
86 763 790
87 898 570
88 145 929
89 40 669
90 386 465
91 263 402
92 491 805
93 204 628
94 589 995
95 674 251
96 305 414
97 137 132
98 41 349
DEMAND_SECTION
1 0
2 2
3 2
4 3
5 1
6 2
7 1
8 1
9 2
10 3
11 2
12 3
13 3
14 3
15 2
16 1
17 3
18 3
19 2
20 2
21 1
22 3
23 1
24 3
25 2
26 3
27 2
28 3
29 3
30 3
31 2
32 2
33 3
34 2
35 1
36 1
37 1
38 1
39 1
40 2
41 2
42 3
43 2
44 2
45 1
46 1
47 1
48 3
49 2
50 3
51 2
52 1
53 1
54 2
55 1
56 2
57 3
58 1
59 3
60 3
61 3
62 2
63 1
64 3
65 2
66 1
67 2
68 2
69 2
70 1
71 3
72 3
73 1
74 1
75 2
76 1
77 1
78 2
79 3
80 1
81 3
82 3
83 1
84 2
85 3
86 3
87 1
88 1
89 2
90 1
91 1
92 3
93 2
94 1
95 1
96 2
97 2
98 2
DEPOT_SECTION
 1
 -1
 EOF 